NAME 
ROWS
 N  OBJ
 L  R0      
 E  R1      
 E  R2      
 E  R3      
 E  R4      
 E  R5      
 E  R6      
 E  R7      
 E  R8      
 E  R9      
 E  R10     
COLUMNS
    MARKER    'MARKER'                 'INTORG'
    I0(6)     OBJ       135
    I0(6)     R0        -107
    I0(6)     R1        17
    I0(6)     R2        10
    I0(6)     R3        12
    I0(6)     R4        -1
    I0(6)     R10       1
    I1(4)     OBJ       11
    I1(4)     R0        142
    I1(4)     R1        19
    I1(4)     R3        12
    I1(4)     R10       1
    I2(5)     OBJ       -185
    I2(5)     R0        -147
    I2(5)     R1        12
    I2(5)     R2        -1
    I2(5)     R4        18
    I2(5)     R10       1
    I3(4)     OBJ       196
    I3(4)     R0        -184
    I3(4)     R2        5
    I3(4)     R3        12
    I3(4)     R10       1
    MARKER    'MARKER'                 'INTEND'
    C4(8)     OBJ       8
    C4(8)     R0        3
    C4(8)     R2        8
    C4(8)     R3        15
    C4(8)     R5        8
    C4(8)     R6        -1
    C4(8)     R7        1
    C4(8)     R8        15
    C4(8)     R9        3
    C5(5)     OBJ       -8
    C5(5)     R0        2
    C5(5)     R2        19
    C5(5)     R3        7
    C5(5)     R6        8
    C5(5)     R7        11
    C6(8)     OBJ       -9
    C6(8)     R0        -9
    C6(8)     R1        19
    C6(8)     R2        15
    C6(8)     R3        7
    C6(8)     R4        4
    C6(8)     R6        2
    C6(8)     R8        4
    C6(8)     R9        8
    C7(6)     OBJ       6
    C7(6)     R0        -2
    C7(6)     R2        19
    C7(6)     R3        4
    C7(6)     R4        14
    C7(6)     R8        17
    C7(6)     R9        18
    C8(7)     OBJ       7
    C8(7)     R0        9
    C8(7)     R1        2
    C8(7)     R3        15
    C8(7)     R4        5
    C8(7)     R6        11
    C8(7)     R7        19
    C8(7)     R9        -1
    C9(7)     OBJ       1
    C9(7)     R0        -8
    C9(7)     R2        14
    C9(7)     R3        5
    C9(7)     R4        7
    C9(7)     R5        13
    C9(7)     R8        16
    C9(7)     R9        16
    C10(1)    R1        1
    C11(1)    R2        1
    C12(1)    R3        1
    C13(1)    R4        1
    C14(1)    R5        1
    C15(1)    R6        1
    C16(1)    R7        1
    C17(1)    R8        1
    C18(1)    R9        1
    C19(1)    R10       1
RHS
    RHS1      R0        -1.7878670360110803e+02
    RHS1      R1        81
    RHS1      R2        62
    RHS1      R3        71
    RHS1      R4        94
    RHS1      R5        59
    RHS1      R6        50
    RHS1      R7        69
    RHS1      R8        70
    RHS1      R9        55
    RHS1      R10       1
BOUNDS
 UP BND1      I0(6)     2
 UP BND1      I1(4)     2
 UP BND1      I2(5)     2
 UP BND1      I3(4)     2
ENDATA
